\Problem name: compact

Minimize
OBJROW: C
Subject To
ord(0,1):  - x(0,0) + x(0,3) >= 10
ord(0,2):  x(0,2) - x(0,3) >= 1
ord(0,3):  x(0,1) - x(0,2) >= 6
ord(1,1):  - x(1,0) + x(1,3) >= 1
ord(1,2):  x(1,1) - x(1,3) >= 7
ord(1,3):  - x(1,1) + x(1,2) >= 5
ord(2,1):  x(2,2) - x(2,3) >= 9
ord(2,2):  x(2,1) - x(2,2) >= 3
ord(2,3):  x(2,0) - x(2,1) >= 7
ord(3,1):  - x(3,1) + x(3,3) >= 7
ord(3,2):  x(3,0) - x(3,3) >= 3
ord(3,3):  - x(3,0) + x(3,2) >= 9
triangle2(0,1,0):  y(0,1,0) + y(1,0,0) = 1
triangle2(0,1,1):  y(0,1,1) + y(1,0,1) = 1
triangle2(0,1,2):  y(0,1,2) + y(1,0,2) = 1
triangle2(0,1,3):  y(0,1,3) + y(1,0,3) = 1
triangle2(0,2,0):  y(0,2,0) + y(2,0,0) = 1
triangle2(0,2,1):  y(0,2,1) + y(2,0,1) = 1
triangle2(0,2,2):  y(0,2,2) + y(2,0,2) = 1
triangle2(0,2,3):  y(0,2,3) + y(2,0,3) = 1
triangle2(0,3,0):  y(0,3,0) + y(3,0,0) = 1
triangle2(0,3,1):  y(0,3,1) + y(3,0,1) = 1
triangle2(0,3,2):  y(0,3,2) + y(3,0,2) = 1
triangle2(0,3,3):  y(0,3,3) + y(3,0,3) = 1
triangle2(1,2,0):  y(1,2,0) + y(2,1,0) = 1
triangle2(1,2,1):  y(1,2,1) + y(2,1,1) = 1
triangle2(1,2,2):  y(1,2,2) + y(2,1,2) = 1
triangle2(1,2,3):  y(1,2,3) + y(2,1,3) = 1
triangle2(1,3,0):  y(1,3,0) + y(3,1,0) = 1
triangle2(1,3,1):  y(1,3,1) + y(3,1,1) = 1
triangle2(1,3,2):  y(1,3,2) + y(3,1,2) = 1
triangle2(1,3,3):  y(1,3,3) + y(3,1,3) = 1
triangle2(2,3,0):  y(2,3,0) + y(3,2,0) = 1
triangle2(2,3,1):  y(2,3,1) + y(3,2,1) = 1
triangle2(2,3,2):  y(2,3,2) + y(3,2,2) = 1
triangle2(2,3,3):  y(2,3,3) + y(3,2,3) = 1
MCLinV(0,1,0):  - x(0,0) + v(0,1,0)p - v(0,1,0)n + x(1,0) = -1
MCLinV(1,0,0):  x(0,0) + v(1,0,0)p - v(1,0,0)n - x(1,0) = -10
MCLin1(0,1,0):  u(0,1,0)p - u(0,1,0)n >= 0
MCLin2(0,1,0):  74 y(1,0,0) + u(0,1,0)p - u(0,1,0)n >= 0
MCLin3(0,1,0):  -69 y(1,0,0) - v(0,1,0)p + v(0,1,0)n + u(0,1,0)p - u(0,1,0)n >= -69
MCLin4(0,1,0):  -69 y(1,0,0) + u(0,1,0)p - u(0,1,0)n <= 0
MCLin5(0,1,0):  74 y(1,0,0) - v(0,1,0)p + v(0,1,0)n + u(0,1,0)p - u(0,1,0)n <= 74
MCLin6(1,0,0):  u(1,0,0)p - u(1,0,0)n >= 0
MCLin7(1,0,0):  80 y(0,1,0) + u(1,0,0)p - u(1,0,0)n >= 0
MCLin8(1,0,0):  -63 y(0,1,0) - v(1,0,0)p + v(1,0,0)n + u(1,0,0)p - u(1,0,0)n >= -63
MCLin9(1,0,0):  -63 y(0,1,0) + u(1,0,0)p - u(1,0,0)n <= 0
MCLin10(1,0,0):  80 y(0,1,0) - v(1,0,0)p + v(1,0,0)n + u(1,0,0)p - u(1,0,0)n <= 80
MCLinV(0,1,1):  - x(0,1) + v(0,1,1)p - v(0,1,1)n + x(1,1) = -5
MCLinV(1,0,1):  x(0,1) + v(1,0,1)p - v(1,0,1)n - x(1,1) = -7
MCLin1(0,1,1):  u(0,1,1)p - u(0,1,1)n >= 0
MCLin2(0,1,1):  69 y(1,0,1) + u(0,1,1)p - u(0,1,1)n >= 0
MCLin3(0,1,1):  -74 y(1,0,1) - v(0,1,1)p + v(0,1,1)n + u(0,1,1)p - u(0,1,1)n >= -74
MCLin4(0,1,1):  -74 y(1,0,1) + u(0,1,1)p - u(0,1,1)n <= 0
MCLin5(0,1,1):  69 y(1,0,1) - v(0,1,1)p + v(0,1,1)n + u(0,1,1)p - u(0,1,1)n <= 69
MCLin6(1,0,1):  u(1,0,1)p - u(1,0,1)n >= 0
MCLin7(1,0,1):  86 y(0,1,1) + u(1,0,1)p - u(1,0,1)n >= 0
MCLin8(1,0,1):  -57 y(0,1,1) - v(1,0,1)p + v(1,0,1)n + u(1,0,1)p - u(1,0,1)n >= -57
MCLin9(1,0,1):  -57 y(0,1,1) + u(1,0,1)p - u(1,0,1)n <= 0
MCLin10(1,0,1):  86 y(0,1,1) - v(1,0,1)p + v(1,0,1)n + u(1,0,1)p - u(1,0,1)n <= 86
MCLinV(0,1,2):  - x(0,2) + v(0,1,2)p - v(0,1,2)n + x(1,2) = -8
MCLinV(1,0,2):  x(0,2) + v(1,0,2)p - v(1,0,2)n - x(1,2) = -6
MCLin1(0,1,2):  u(0,1,2)p - u(0,1,2)n >= 0
MCLin2(0,1,2):  83 y(1,0,2) + u(0,1,2)p - u(0,1,2)n >= 0
MCLin3(0,1,2):  -60 y(1,0,2) - v(0,1,2)p + v(0,1,2)n + u(0,1,2)p - u(0,1,2)n >= -60
MCLin4(0,1,2):  -60 y(1,0,2) + u(0,1,2)p - u(0,1,2)n <= 0
MCLin5(0,1,2):  83 y(1,0,2) - v(0,1,2)p + v(0,1,2)n + u(0,1,2)p - u(0,1,2)n <= 83
MCLin6(1,0,2):  u(1,0,2)p - u(1,0,2)n >= 0
MCLin7(1,0,2):  74 y(0,1,2) + u(1,0,2)p - u(1,0,2)n >= 0
MCLin8(1,0,2):  -69 y(0,1,2) - v(1,0,2)p + v(1,0,2)n + u(1,0,2)p - u(1,0,2)n >= -69
MCLin9(1,0,2):  -69 y(0,1,2) + u(1,0,2)p - u(1,0,2)n <= 0
MCLin10(1,0,2):  74 y(0,1,2) - v(1,0,2)p + v(1,0,2)n + u(1,0,2)p - u(1,0,2)n <= 74
MCLinV(0,1,3):  - x(0,3) + v(0,1,3)p - v(0,1,3)n + x(1,3) = -7
MCLinV(1,0,3):  x(0,3) + v(1,0,3)p - v(1,0,3)n - x(1,3) = -1
MCLin1(0,1,3):  u(0,1,3)p - u(0,1,3)n >= 0
MCLin2(0,1,3):  71 y(1,0,3) + u(0,1,3)p - u(0,1,3)n >= 0
MCLin3(0,1,3):  -72 y(1,0,3) - v(0,1,3)p + v(0,1,3)n + u(0,1,3)p - u(0,1,3)n >= -72
MCLin4(0,1,3):  -72 y(1,0,3) + u(0,1,3)p - u(0,1,3)n <= 0
MCLin5(0,1,3):  71 y(1,0,3) - v(0,1,3)p + v(0,1,3)n + u(0,1,3)p - u(0,1,3)n <= 71
MCLin6(1,0,3):  u(1,0,3)p - u(1,0,3)n >= 0
MCLin7(1,0,3):  80 y(0,1,3) + u(1,0,3)p - u(1,0,3)n >= 0
MCLin8(1,0,3):  -63 y(0,1,3) - v(1,0,3)p + v(1,0,3)n + u(1,0,3)p - u(1,0,3)n >= -63
MCLin9(1,0,3):  -63 y(0,1,3) + u(1,0,3)p - u(1,0,3)n <= 0
MCLin10(1,0,3):  80 y(0,1,3) - v(1,0,3)p + v(1,0,3)n + u(1,0,3)p - u(1,0,3)n <= 80
MCLinV(0,2,0):  - x(0,0) + v(0,2,0)p - v(0,2,0)n + x(2,0) = -1
MCLinV(2,0,0):  x(0,0) + v(2,0,0)p - v(2,0,0)n - x(2,0) = -10
MCLin1(0,2,0):  u(0,2,0)p - u(0,2,0)n >= 0
MCLin2(0,2,0):  94 y(2,0,0) + u(0,2,0)p - u(0,2,0)n >= 0
MCLin3(0,2,0):  -50 y(2,0,0) - v(0,2,0)p + v(0,2,0)n + u(0,2,0)p - u(0,2,0)n >= -50
MCLin4(0,2,0):  -50 y(2,0,0) + u(0,2,0)p - u(0,2,0)n <= 0
MCLin5(0,2,0):  94 y(2,0,0) - v(0,2,0)p + v(0,2,0)n + u(0,2,0)p - u(0,2,0)n <= 94
MCLin6(2,0,0):  u(2,0,0)p - u(2,0,0)n >= 0
MCLin7(2,0,0):  61 y(0,2,0) + u(2,0,0)p - u(2,0,0)n >= 0
MCLin8(2,0,0):  -83 y(0,2,0) - v(2,0,0)p + v(2,0,0)n + u(2,0,0)p - u(2,0,0)n >= -83
MCLin9(2,0,0):  -83 y(0,2,0) + u(2,0,0)p - u(2,0,0)n <= 0
MCLin10(2,0,0):  61 y(0,2,0) - v(2,0,0)p + v(2,0,0)n + u(2,0,0)p - u(2,0,0)n <= 61
MCLinV(0,2,1):  - x(0,1) + v(0,2,1)p - v(0,2,1)n + x(2,1) = -7
MCLinV(2,0,1):  x(0,1) + v(2,0,1)p - v(2,0,1)n - x(2,1) = -7
MCLin1(0,2,1):  u(0,2,1)p - u(0,2,1)n >= 0
MCLin2(0,2,1):  76 y(2,0,1) + u(0,2,1)p - u(0,2,1)n >= 0
MCLin3(0,2,1):  -68 y(2,0,1) - v(0,2,1)p + v(0,2,1)n + u(0,2,1)p - u(0,2,1)n >= -68
MCLin4(0,2,1):  -68 y(2,0,1) + u(0,2,1)p - u(0,2,1)n <= 0
MCLin5(0,2,1):  76 y(2,0,1) - v(0,2,1)p + v(0,2,1)n + u(0,2,1)p - u(0,2,1)n <= 76
MCLin6(2,0,1):  u(2,0,1)p - u(2,0,1)n >= 0
MCLin7(2,0,1):  82 y(0,2,1) + u(2,0,1)p - u(2,0,1)n >= 0
MCLin8(2,0,1):  -62 y(0,2,1) - v(2,0,1)p + v(2,0,1)n + u(2,0,1)p - u(2,0,1)n >= -62
MCLin9(2,0,1):  -62 y(0,2,1) + u(2,0,1)p - u(2,0,1)n <= 0
MCLin10(2,0,1):  82 y(0,2,1) - v(2,0,1)p + v(2,0,1)n + u(2,0,1)p - u(2,0,1)n <= 82
MCLinV(0,2,2):  - x(0,2) + v(0,2,2)p - v(0,2,2)n + x(2,2) = -3
MCLinV(2,0,2):  x(0,2) + v(2,0,2)p - v(2,0,2)n - x(2,2) = -6
MCLin1(0,2,2):  u(0,2,2)p - u(0,2,2)n >= 0
MCLin2(0,2,2):  75 y(2,0,2) + u(0,2,2)p - u(0,2,2)n >= 0
MCLin3(0,2,2):  -69 y(2,0,2) - v(0,2,2)p + v(0,2,2)n + u(0,2,2)p - u(0,2,2)n >= -69
MCLin4(0,2,2):  -69 y(2,0,2) + u(0,2,2)p - u(0,2,2)n <= 0
MCLin5(0,2,2):  75 y(2,0,2) - v(0,2,2)p + v(0,2,2)n + u(0,2,2)p - u(0,2,2)n <= 75
MCLin6(2,0,2):  u(2,0,2)p - u(2,0,2)n >= 0
MCLin7(2,0,2):  78 y(0,2,2) + u(2,0,2)p - u(2,0,2)n >= 0
MCLin8(2,0,2):  -66 y(0,2,2) - v(2,0,2)p + v(2,0,2)n + u(2,0,2)p - u(2,0,2)n >= -66
MCLin9(2,0,2):  -66 y(0,2,2) + u(2,0,2)p - u(2,0,2)n <= 0
MCLin10(2,0,2):  78 y(0,2,2) - v(2,0,2)p + v(2,0,2)n + u(2,0,2)p - u(2,0,2)n <= 78
MCLinV(0,2,3):  - x(0,3) + v(0,2,3)p - v(0,2,3)n + x(2,3) = -9
MCLinV(2,0,3):  x(0,3) + v(2,0,3)p - v(2,0,3)n - x(2,3) = -1
MCLin1(0,2,3):  u(0,2,3)p - u(0,2,3)n >= 0
MCLin2(0,2,3):  73 y(2,0,3) + u(0,2,3)p - u(0,2,3)n >= 0
MCLin3(0,2,3):  -71 y(2,0,3) - v(0,2,3)p + v(0,2,3)n + u(0,2,3)p - u(0,2,3)n >= -71
MCLin4(0,2,3):  -71 y(2,0,3) + u(0,2,3)p - u(0,2,3)n <= 0
MCLin5(0,2,3):  73 y(2,0,3) - v(0,2,3)p + v(0,2,3)n + u(0,2,3)p - u(0,2,3)n <= 73
MCLin6(2,0,3):  u(2,0,3)p - u(2,0,3)n >= 0
MCLin7(2,0,3):  81 y(0,2,3) + u(2,0,3)p - u(2,0,3)n >= 0
MCLin8(2,0,3):  -63 y(0,2,3) - v(2,0,3)p + v(2,0,3)n + u(2,0,3)p - u(2,0,3)n >= -63
MCLin9(2,0,3):  -63 y(0,2,3) + u(2,0,3)p - u(2,0,3)n <= 0
MCLin10(2,0,3):  81 y(0,2,3) - v(2,0,3)p + v(2,0,3)n + u(2,0,3)p - u(2,0,3)n <= 81
MCLinV(0,3,0):  - x(0,0) + v(0,3,0)p - v(0,3,0)n + x(3,0) = -9
MCLinV(3,0,0):  x(0,0) + v(3,0,0)p - v(3,0,0)n - x(3,0) = -10
MCLin1(0,3,0):  u(0,3,0)p - u(0,3,0)n >= 0
MCLin2(0,3,0):  84 y(3,0,0) + u(0,3,0)p - u(0,3,0)n >= 0
MCLin3(0,3,0):  -51 y(3,0,0) - v(0,3,0)p + v(0,3,0)n + u(0,3,0)p - u(0,3,0)n >= -51
MCLin4(0,3,0):  -51 y(3,0,0) + u(0,3,0)p - u(0,3,0)n <= 0
MCLin5(0,3,0):  84 y(3,0,0) - v(0,3,0)p + v(0,3,0)n + u(0,3,0)p - u(0,3,0)n <= 84
MCLin6(3,0,0):  u(3,0,0)p - u(3,0,0)n >= 0
MCLin7(3,0,0):  70 y(0,3,0) + u(3,0,0)p - u(3,0,0)n >= 0
MCLin8(3,0,0):  -65 y(0,3,0) - v(3,0,0)p + v(3,0,0)n + u(3,0,0)p - u(3,0,0)n >= -65
MCLin9(3,0,0):  -65 y(0,3,0) + u(3,0,0)p - u(3,0,0)n <= 0
MCLin10(3,0,0):  70 y(0,3,0) - v(3,0,0)p + v(3,0,0)n + u(3,0,0)p - u(3,0,0)n <= 70
MCLinV(0,3,1):  - x(0,1) + v(0,3,1)p - v(0,3,1)n + x(3,1) = -7
MCLinV(3,0,1):  x(0,1) + v(3,0,1)p - v(3,0,1)n - x(3,1) = -7
MCLin1(0,3,1):  u(0,3,1)p - u(0,3,1)n >= 0
MCLin2(0,3,1):  55 y(3,0,1) + u(0,3,1)p - u(0,3,1)n >= 0
MCLin3(0,3,1):  -80 y(3,0,1) - v(0,3,1)p + v(0,3,1)n + u(0,3,1)p - u(0,3,1)n >= -80
MCLin4(0,3,1):  -80 y(3,0,1) + u(0,3,1)p - u(0,3,1)n <= 0
MCLin5(0,3,1):  55 y(3,0,1) - v(0,3,1)p + v(0,3,1)n + u(0,3,1)p - u(0,3,1)n <= 55
MCLin6(3,0,1):  u(3,0,1)p - u(3,0,1)n >= 0
MCLin7(3,0,1):  94 y(0,3,1) + u(3,0,1)p - u(3,0,1)n >= 0
MCLin8(3,0,1):  -41 y(0,3,1) - v(3,0,1)p + v(3,0,1)n + u(3,0,1)p - u(3,0,1)n >= -41
MCLin9(3,0,1):  -41 y(0,3,1) + u(3,0,1)p - u(3,0,1)n <= 0
MCLin10(3,0,1):  94 y(0,3,1) - v(3,0,1)p + v(3,0,1)n + u(3,0,1)p - u(3,0,1)n <= 94
MCLinV(0,3,2):  - x(0,2) + v(0,3,2)p - v(0,3,2)n + x(3,2) = -10
MCLinV(3,0,2):  x(0,2) + v(3,0,2)p - v(3,0,2)n - x(3,2) = -6
MCLin1(0,3,2):  u(0,3,2)p - u(0,3,2)n >= 0
MCLin2(0,3,2):  83 y(3,0,2) + u(0,3,2)p - u(0,3,2)n >= 0
MCLin3(0,3,2):  -52 y(3,0,2) - v(0,3,2)p + v(0,3,2)n + u(0,3,2)p - u(0,3,2)n >= -52
MCLin4(0,3,2):  -52 y(3,0,2) + u(0,3,2)p - u(0,3,2)n <= 0
MCLin5(0,3,2):  83 y(3,0,2) - v(0,3,2)p + v(0,3,2)n + u(0,3,2)p - u(0,3,2)n <= 83
MCLin6(3,0,2):  u(3,0,2)p - u(3,0,2)n >= 0
MCLin7(3,0,2):  68 y(0,3,2) + u(3,0,2)p - u(3,0,2)n >= 0
MCLin8(3,0,2):  -67 y(0,3,2) - v(3,0,2)p + v(3,0,2)n + u(3,0,2)p - u(3,0,2)n >= -67
MCLin9(3,0,2):  -67 y(0,3,2) + u(3,0,2)p - u(3,0,2)n <= 0
MCLin10(3,0,2):  68 y(0,3,2) - v(3,0,2)p + v(3,0,2)n + u(3,0,2)p - u(3,0,2)n <= 68
MCLinV(0,3,3):  - x(0,3) + v(0,3,3)p - v(0,3,3)n + x(3,3) = -3
MCLinV(3,0,3):  x(0,3) + v(3,0,3)p - v(3,0,3)n - x(3,3) = -1
MCLin1(0,3,3):  u(0,3,3)p - u(0,3,3)n >= 0
MCLin2(0,3,3):  65 y(3,0,3) + u(0,3,3)p - u(0,3,3)n >= 0
MCLin3(0,3,3):  -70 y(3,0,3) - v(0,3,3)p + v(0,3,3)n + u(0,3,3)p - u(0,3,3)n >= -70
MCLin4(0,3,3):  -70 y(3,0,3) + u(0,3,3)p - u(0,3,3)n <= 0
MCLin5(0,3,3):  65 y(3,0,3) - v(0,3,3)p + v(0,3,3)n + u(0,3,3)p - u(0,3,3)n <= 65
MCLin6(3,0,3):  u(3,0,3)p - u(3,0,3)n >= 0
MCLin7(3,0,3):  74 y(0,3,3) + u(3,0,3)p - u(3,0,3)n >= 0
MCLin8(3,0,3):  -61 y(0,3,3) - v(3,0,3)p + v(3,0,3)n + u(3,0,3)p - u(3,0,3)n >= -61
MCLin9(3,0,3):  -61 y(0,3,3) + u(3,0,3)p - u(3,0,3)n <= 0
MCLin10(3,0,3):  74 y(0,3,3) - v(3,0,3)p + v(3,0,3)n + u(3,0,3)p - u(3,0,3)n <= 74
MCLinV(1,2,0):  - x(1,0) + v(1,2,0)p - v(1,2,0)n + x(2,0) = -1
MCLinV(2,1,0):  x(1,0) + v(2,1,0)p - v(2,1,0)n - x(2,0) = -1
MCLin1(1,2,0):  u(1,2,0)p - u(1,2,0)n >= 0
MCLin2(1,2,0):  94 y(2,1,0) + u(1,2,0)p - u(1,2,0)n >= 0
MCLin3(1,2,0):  -53 y(2,1,0) - v(1,2,0)p + v(1,2,0)n + u(1,2,0)p - u(1,2,0)n >= -53
MCLin4(1,2,0):  -53 y(2,1,0) + u(1,2,0)p - u(1,2,0)n <= 0
MCLin5(1,2,0):  94 y(2,1,0) - v(1,2,0)p + v(1,2,0)n + u(1,2,0)p - u(1,2,0)n <= 94
MCLin6(2,1,0):  u(2,1,0)p - u(2,1,0)n >= 0
MCLin7(2,1,0):  55 y(1,2,0) + u(2,1,0)p - u(2,1,0)n >= 0
MCLin8(2,1,0):  -92 y(1,2,0) - v(2,1,0)p + v(2,1,0)n + u(2,1,0)p - u(2,1,0)n >= -92
MCLin9(2,1,0):  -92 y(1,2,0) + u(2,1,0)p - u(2,1,0)n <= 0
MCLin10(2,1,0):  55 y(1,2,0) - v(2,1,0)p + v(2,1,0)n + u(2,1,0)p - u(2,1,0)n <= 55
MCLinV(1,2,1):  - x(1,1) + v(1,2,1)p - v(1,2,1)n + x(2,1) = -7
MCLinV(2,1,1):  x(1,1) + v(2,1,1)p - v(2,1,1)n - x(2,1) = -5
MCLin1(1,2,1):  u(1,2,1)p - u(1,2,1)n >= 0
MCLin2(1,2,1):  85 y(2,1,1) + u(1,2,1)p - u(1,2,1)n >= 0
MCLin3(1,2,1):  -62 y(2,1,1) - v(1,2,1)p + v(1,2,1)n + u(1,2,1)p - u(1,2,1)n >= -62
MCLin4(1,2,1):  -62 y(2,1,1) + u(1,2,1)p - u(1,2,1)n <= 0
MCLin5(1,2,1):  85 y(2,1,1) - v(1,2,1)p + v(1,2,1)n + u(1,2,1)p - u(1,2,1)n <= 85
MCLin6(2,1,1):  u(2,1,1)p - u(2,1,1)n >= 0
MCLin7(2,1,1):  74 y(1,2,1) + u(2,1,1)p - u(2,1,1)n >= 0
MCLin8(2,1,1):  -73 y(1,2,1) - v(2,1,1)p + v(2,1,1)n + u(2,1,1)p - u(2,1,1)n >= -73
MCLin9(2,1,1):  -73 y(1,2,1) + u(2,1,1)p - u(2,1,1)n <= 0
MCLin10(2,1,1):  74 y(1,2,1) - v(2,1,1)p + v(2,1,1)n + u(2,1,1)p - u(2,1,1)n <= 74
MCLinV(1,2,2):  - x(1,2) + v(1,2,2)p - v(1,2,2)n + x(2,2) = -3
MCLinV(2,1,2):  x(1,2) + v(2,1,2)p - v(2,1,2)n - x(2,2) = -8
MCLin1(1,2,2):  u(1,2,2)p - u(1,2,2)n >= 0
MCLin2(1,2,2):  73 y(2,1,2) + u(1,2,2)p - u(1,2,2)n >= 0
MCLin3(1,2,2):  -74 y(2,1,2) - v(1,2,2)p + v(1,2,2)n + u(1,2,2)p - u(1,2,2)n >= -74
MCLin4(1,2,2):  -74 y(2,1,2) + u(1,2,2)p - u(1,2,2)n <= 0
MCLin5(1,2,2):  73 y(2,1,2) - v(1,2,2)p + v(1,2,2)n + u(1,2,2)p - u(1,2,2)n <= 73
MCLin6(2,1,2):  u(2,1,2)p - u(2,1,2)n >= 0
MCLin7(2,1,2):  85 y(1,2,2) + u(2,1,2)p - u(2,1,2)n >= 0
MCLin8(2,1,2):  -62 y(1,2,2) - v(2,1,2)p + v(2,1,2)n + u(2,1,2)p - u(2,1,2)n >= -62
MCLin9(2,1,2):  -62 y(1,2,2) + u(2,1,2)p - u(2,1,2)n <= 0
MCLin10(2,1,2):  85 y(1,2,2) - v(2,1,2)p + v(2,1,2)n + u(2,1,2)p - u(2,1,2)n <= 85
MCLinV(1,2,3):  - x(1,3) + v(1,2,3)p - v(1,2,3)n + x(2,3) = -9
MCLinV(2,1,3):  x(1,3) + v(2,1,3)p - v(2,1,3)n - x(2,3) = -7
MCLin1(1,2,3):  u(1,2,3)p - u(1,2,3)n >= 0
MCLin2(1,2,3):  82 y(2,1,3) + u(1,2,3)p - u(1,2,3)n >= 0
MCLin3(1,2,3):  -65 y(2,1,3) - v(1,2,3)p + v(1,2,3)n + u(1,2,3)p - u(1,2,3)n >= -65
MCLin4(1,2,3):  -65 y(2,1,3) + u(1,2,3)p - u(1,2,3)n <= 0
MCLin5(1,2,3):  82 y(2,1,3) - v(1,2,3)p + v(1,2,3)n + u(1,2,3)p - u(1,2,3)n <= 82
MCLin6(2,1,3):  u(2,1,3)p - u(2,1,3)n >= 0
MCLin7(2,1,3):  81 y(1,2,3) + u(2,1,3)p - u(2,1,3)n >= 0
MCLin8(2,1,3):  -66 y(1,2,3) - v(2,1,3)p + v(2,1,3)n + u(2,1,3)p - u(2,1,3)n >= -66
MCLin9(2,1,3):  -66 y(1,2,3) + u(2,1,3)p - u(2,1,3)n <= 0
MCLin10(2,1,3):  81 y(1,2,3) - v(2,1,3)p + v(2,1,3)n + u(2,1,3)p - u(2,1,3)n <= 81
MCLinV(1,3,0):  - x(1,0) + v(1,3,0)p - v(1,3,0)n + x(3,0) = -9
MCLinV(3,1,0):  x(1,0) + v(3,1,0)p - v(3,1,0)n - x(3,0) = -1
MCLin1(1,3,0):  u(1,3,0)p - u(1,3,0)n >= 0
MCLin2(1,3,0):  84 y(3,1,0) + u(1,3,0)p - u(1,3,0)n >= 0
MCLin3(1,3,0):  -54 y(3,1,0) - v(1,3,0)p + v(1,3,0)n + u(1,3,0)p - u(1,3,0)n >= -54
MCLin4(1,3,0):  -54 y(3,1,0) + u(1,3,0)p - u(1,3,0)n <= 0
MCLin5(1,3,0):  84 y(3,1,0) - v(1,3,0)p + v(1,3,0)n + u(1,3,0)p - u(1,3,0)n <= 84
MCLin6(3,1,0):  u(3,1,0)p - u(3,1,0)n >= 0
MCLin7(3,1,0):  64 y(1,3,0) + u(3,1,0)p - u(3,1,0)n >= 0
MCLin8(3,1,0):  -74 y(1,3,0) - v(3,1,0)p + v(3,1,0)n + u(3,1,0)p - u(3,1,0)n >= -74
MCLin9(3,1,0):  -74 y(1,3,0) + u(3,1,0)p - u(3,1,0)n <= 0
MCLin10(3,1,0):  64 y(1,3,0) - v(3,1,0)p + v(3,1,0)n + u(3,1,0)p - u(3,1,0)n <= 64
MCLinV(1,3,1):  - x(1,1) + v(1,3,1)p - v(1,3,1)n + x(3,1) = -7
MCLinV(3,1,1):  x(1,1) + v(3,1,1)p - v(3,1,1)n - x(3,1) = -5
MCLin1(1,3,1):  u(1,3,1)p - u(1,3,1)n >= 0
MCLin2(1,3,1):  64 y(3,1,1) + u(1,3,1)p - u(1,3,1)n >= 0
MCLin3(1,3,1):  -74 y(3,1,1) - v(1,3,1)p + v(1,3,1)n + u(1,3,1)p - u(1,3,1)n >= -74
MCLin4(1,3,1):  -74 y(3,1,1) + u(1,3,1)p - u(1,3,1)n <= 0
MCLin5(1,3,1):  64 y(3,1,1) - v(1,3,1)p + v(1,3,1)n + u(1,3,1)p - u(1,3,1)n <= 64
MCLin6(3,1,1):  u(3,1,1)p - u(3,1,1)n >= 0
MCLin7(3,1,1):  86 y(1,3,1) + u(3,1,1)p - u(3,1,1)n >= 0
MCLin8(3,1,1):  -52 y(1,3,1) - v(3,1,1)p + v(3,1,1)n + u(3,1,1)p - u(3,1,1)n >= -52
MCLin9(3,1,1):  -52 y(1,3,1) + u(3,1,1)p - u(3,1,1)n <= 0
MCLin10(3,1,1):  86 y(1,3,1) - v(3,1,1)p + v(3,1,1)n + u(3,1,1)p - u(3,1,1)n <= 86
MCLinV(1,3,2):  - x(1,2) + v(1,3,2)p - v(1,3,2)n + x(3,2) = -10
MCLinV(3,1,2):  x(1,2) + v(3,1,2)p - v(3,1,2)n - x(3,2) = -8
MCLin1(1,3,2):  u(1,3,2)p - u(1,3,2)n >= 0
MCLin2(1,3,2):  81 y(3,1,2) + u(1,3,2)p - u(1,3,2)n >= 0
MCLin3(1,3,2):  -57 y(3,1,2) - v(1,3,2)p + v(1,3,2)n + u(1,3,2)p - u(1,3,2)n >= -57
MCLin4(1,3,2):  -57 y(3,1,2) + u(1,3,2)p - u(1,3,2)n <= 0
MCLin5(1,3,2):  81 y(3,1,2) - v(1,3,2)p + v(1,3,2)n + u(1,3,2)p - u(1,3,2)n <= 81
MCLin6(3,1,2):  u(3,1,2)p - u(3,1,2)n >= 0
MCLin7(3,1,2):  75 y(1,3,2) + u(3,1,2)p - u(3,1,2)n >= 0
MCLin8(3,1,2):  -63 y(1,3,2) - v(3,1,2)p + v(3,1,2)n + u(3,1,2)p - u(3,1,2)n >= -63
MCLin9(3,1,2):  -63 y(1,3,2) + u(3,1,2)p - u(3,1,2)n <= 0
MCLin10(3,1,2):  75 y(1,3,2) - v(3,1,2)p + v(3,1,2)n + u(3,1,2)p - u(3,1,2)n <= 75
MCLinV(1,3,3):  - x(1,3) + v(1,3,3)p - v(1,3,3)n + x(3,3) = -3
MCLinV(3,1,3):  x(1,3) + v(3,1,3)p - v(3,1,3)n - x(3,3) = -7
MCLin1(1,3,3):  u(1,3,3)p - u(1,3,3)n >= 0
MCLin2(1,3,3):  74 y(3,1,3) + u(1,3,3)p - u(1,3,3)n >= 0
MCLin3(1,3,3):  -64 y(3,1,3) - v(1,3,3)p + v(1,3,3)n + u(1,3,3)p - u(1,3,3)n >= -64
MCLin4(1,3,3):  -64 y(3,1,3) + u(1,3,3)p - u(1,3,3)n <= 0
MCLin5(1,3,3):  74 y(3,1,3) - v(1,3,3)p + v(1,3,3)n + u(1,3,3)p - u(1,3,3)n <= 74
MCLin6(3,1,3):  u(3,1,3)p - u(3,1,3)n >= 0
MCLin7(3,1,3):  74 y(1,3,3) + u(3,1,3)p - u(3,1,3)n >= 0
MCLin8(3,1,3):  -64 y(1,3,3) - v(3,1,3)p + v(3,1,3)n + u(3,1,3)p - u(3,1,3)n >= -64
MCLin9(3,1,3):  -64 y(1,3,3) + u(3,1,3)p - u(3,1,3)n <= 0
MCLin10(3,1,3):  74 y(1,3,3) - v(3,1,3)p + v(3,1,3)n + u(3,1,3)p - u(3,1,3)n <= 74
MCLinV(2,3,0):  - x(2,0) + v(2,3,0)p - v(2,3,0)n + x(3,0) = -9
MCLinV(3,2,0):  x(2,0) + v(3,2,0)p - v(3,2,0)n - x(3,0) = -1
MCLin1(2,3,0):  u(2,3,0)p - u(2,3,0)n >= 0
MCLin2(2,3,0):  65 y(3,2,0) + u(2,3,0)p - u(2,3,0)n >= 0
MCLin3(2,3,0):  -74 y(3,2,0) - v(2,3,0)p + v(2,3,0)n + u(2,3,0)p - u(2,3,0)n >= -74
MCLin4(2,3,0):  -74 y(3,2,0) + u(2,3,0)p - u(2,3,0)n <= 0
MCLin5(2,3,0):  65 y(3,2,0) - v(2,3,0)p + v(2,3,0)n + u(2,3,0)p - u(2,3,0)n <= 65
MCLin6(3,2,0):  u(3,2,0)p - u(3,2,0)n >= 0
MCLin7(3,2,0):  84 y(2,3,0) + u(3,2,0)p - u(3,2,0)n >= 0
MCLin8(3,2,0):  -55 y(2,3,0) - v(3,2,0)p + v(3,2,0)n + u(3,2,0)p - u(3,2,0)n >= -55
MCLin9(3,2,0):  -55 y(2,3,0) + u(3,2,0)p - u(3,2,0)n <= 0
MCLin10(3,2,0):  84 y(2,3,0) - v(3,2,0)p + v(3,2,0)n + u(3,2,0)p - u(3,2,0)n <= 84
MCLinV(2,3,1):  - x(2,1) + v(2,3,1)p - v(2,3,1)n + x(3,1) = -7
MCLinV(3,2,1):  x(2,1) + v(3,2,1)p - v(3,2,1)n - x(3,1) = -7
MCLin1(2,3,1):  u(2,3,1)p - u(2,3,1)n >= 0
MCLin2(2,3,1):  60 y(3,2,1) + u(2,3,1)p - u(2,3,1)n >= 0
MCLin3(2,3,1):  -79 y(3,2,1) - v(2,3,1)p + v(2,3,1)n + u(2,3,1)p - u(2,3,1)n >= -79
MCLin4(2,3,1):  -79 y(3,2,1) + u(2,3,1)p - u(2,3,1)n <= 0
MCLin5(2,3,1):  60 y(3,2,1) - v(2,3,1)p + v(2,3,1)n + u(2,3,1)p - u(2,3,1)n <= 60
MCLin6(3,2,1):  u(3,2,1)p - u(3,2,1)n >= 0
MCLin7(3,2,1):  93 y(2,3,1) + u(3,2,1)p - u(3,2,1)n >= 0
MCLin8(3,2,1):  -46 y(2,3,1) - v(3,2,1)p + v(3,2,1)n + u(3,2,1)p - u(3,2,1)n >= -46
MCLin9(3,2,1):  -46 y(2,3,1) + u(3,2,1)p - u(3,2,1)n <= 0
MCLin10(3,2,1):  93 y(2,3,1) - v(3,2,1)p + v(3,2,1)n + u(3,2,1)p - u(3,2,1)n <= 93
MCLinV(2,3,2):  - x(2,2) + v(2,3,2)p - v(2,3,2)n + x(3,2) = -10
MCLinV(3,2,2):  x(2,2) + v(3,2,2)p - v(3,2,2)n - x(3,2) = -3
MCLin1(2,3,2):  u(2,3,2)p - u(2,3,2)n >= 0
MCLin2(2,3,2):  85 y(3,2,2) + u(2,3,2)p - u(2,3,2)n >= 0
MCLin3(2,3,2):  -54 y(3,2,2) - v(2,3,2)p + v(2,3,2)n + u(2,3,2)p - u(2,3,2)n >= -54
MCLin4(2,3,2):  -54 y(3,2,2) + u(2,3,2)p - u(2,3,2)n <= 0
MCLin5(2,3,2):  85 y(3,2,2) - v(2,3,2)p + v(2,3,2)n + u(2,3,2)p - u(2,3,2)n <= 85
MCLin6(3,2,2):  u(3,2,2)p - u(3,2,2)n >= 0
MCLin7(3,2,2):  67 y(2,3,2) + u(3,2,2)p - u(3,2,2)n >= 0
MCLin8(3,2,2):  -72 y(2,3,2) - v(3,2,2)p + v(3,2,2)n + u(3,2,2)p - u(3,2,2)n >= -72
MCLin9(3,2,2):  -72 y(2,3,2) + u(3,2,2)p - u(3,2,2)n <= 0
MCLin10(3,2,2):  67 y(2,3,2) - v(3,2,2)p + v(3,2,2)n + u(3,2,2)p - u(3,2,2)n <= 67
MCLinV(2,3,3):  - x(2,3) + v(2,3,3)p - v(2,3,3)n + x(3,3) = -3
MCLinV(3,2,3):  x(2,3) + v(3,2,3)p - v(3,2,3)n - x(3,3) = -9
MCLin1(2,3,3):  u(2,3,3)p - u(2,3,3)n >= 0
MCLin2(2,3,3):  75 y(3,2,3) + u(2,3,3)p - u(2,3,3)n >= 0
MCLin3(2,3,3):  -64 y(3,2,3) - v(2,3,3)p + v(2,3,3)n + u(2,3,3)p - u(2,3,3)n >= -64
MCLin4(2,3,3):  -64 y(3,2,3) + u(2,3,3)p - u(2,3,3)n <= 0
MCLin5(2,3,3):  75 y(3,2,3) - v(2,3,3)p + v(2,3,3)n + u(2,3,3)p - u(2,3,3)n <= 75
MCLin6(3,2,3):  u(3,2,3)p - u(3,2,3)n >= 0
MCLin7(3,2,3):  76 y(2,3,3) + u(3,2,3)p - u(3,2,3)n >= 0
MCLin8(3,2,3):  -63 y(2,3,3) - v(3,2,3)p + v(3,2,3)n + u(3,2,3)p - u(3,2,3)n >= -63
MCLin9(3,2,3):  -63 y(2,3,3) + u(3,2,3)p - u(3,2,3)n <= 0
MCLin10(3,2,3):  76 y(2,3,3) - v(3,2,3)p + v(3,2,3)n + u(3,2,3)p - u(3,2,3)n <= 76
makespan(0):  C - x(0,1) >= 7
makespan(1):  C - x(1,2) >= 8
makespan(2):  C - x(2,0) >= 1
makespan(3):  C - x(3,2) >= 10
cut_clique_1(012,0):  0.79431 x(0,0) + 0.68209 x(1,0) + 0.05119 x(2,0) >= 1
cut_clique_1(0123,0):  0.82131 x(0,0) + 0.70631 x(1,0) + 0.04761 x(2,0) + 0.00812 x(3,0) >= 1
cut_clique_1(12,1):  0.03599 x(1,1) + 0.05840 x(2,1) >= 1
cut_clique_1(123,1):  0.05546 x(1,1) + 0.04483 x(2,1) + 0.58790 x(3,1) >= 1
cut_clique_1(13,2):  0.01807 x(1,2) + 0.03904 x(3,2) >= 1
cut_clique_1(01,2):  0.02457 x(0,2) + 0.04962 x(1,2) >= 1
cut_clique_1(13,3):  0.39166 x(1,3) + 0.08241 x(3,3) >= 1
cut_clique_1(123,3):  0.14251 x(1,3) + 0.13708 x(2,3) + 0.10362 x(3,3) >= 1
cut_clique_1(12,3):  0.97000 x(1,3) + 0.86017 x(2,3) >= 1
cut_clique_1(012,3):  0.08016 x(0,3) + 0.13755 x(1,3) + 0.65304 x(2,3) >= 1
cut_clique_2(013,0):  0.20004 x(0,0) + 0.98983 x(1,0) + 0.09672 x(3,0) >= 1
cut_clique_2(012,0):  x(0,0) + 0.53923 x(1,0) + 0.04503 x(2,0) >= 1
cut_clique_2(0123,0):  0.74078 x(0,0) + 0.96466 x(1,0) + 0.01753 x(2,0) + 0.05050 x(3,0) >= 1
cut_clique_2(01,0):  x(0,0) + 0.99911 x(1,0) >= 1
cut_clique_2(123,1):  0.02580 x(1,1) + 0.06363 x(2,1) + 0.85890 x(3,1) >= 1
cut_clique_2(12,1):  0.02580 x(1,1) + 0.06300 x(2,1) >= 1
cut_clique_2(02,1):  0.01731 x(0,1) + 0.05776 x(2,1) >= 1
cut_clique_2(023,1):  0.01696 x(0,1) + 0.05918 x(2,1) + 0.56296 x(3,1) >= 1
cut_clique_2(02,2):  0.04769 x(0,2) + 0.05148 x(2,2) >= 1
cut_clique_2(012,2):  0.06059 x(0,2) + 0.00024 x(1,2) + 0.03503 x(2,2) >= 1
cut_clique_2(01,2):  0.03815 x(0,2) + 0.03887 x(1,2) >= 1
cut_clique_2(23,3):  0.10149 x(2,3) + 0.13890 x(3,3) >= 1
cut_clique_2(12,3):  0.51706 x(1,3) + 0.99925 x(2,3) >= 1
cut_clique_2(012,3):  0.03768 x(0,3) + 0.26713 x(1,3) + 0.66415 x(2,3) >= 1
cut_clique_2(123,3):  0.23975 x(1,3) + 0.48185 x(2,3) + 0.06675 x(3,3) >= 1
cut_clique_3(013,0):  0.18465 x(0,0) + 0.29635 x(1,0) + 0.08116 x(3,0) >= 1
cut_clique_3(12,1):  0.03774 x(1,1) + 0.05378 x(2,1) >= 1
cut_clique_3(12,3):  0.48932 x(1,3) + 0.58691 x(2,3) >= 1
cut_clique_3(123,3):  0.16929 x(1,3) + 0.66083 x(2,3) + 0.07350 x(3,3) >= 1
cut_clique_3(23,3):  0.09388 x(2,3) + 0.13554 x(3,3) >= 1
cut_clique_3(13,3):  0.08302 x(1,3) + 0.12177 x(3,3) >= 1
cut_clique_4(0123,0):  0.09387 x(0,0) + 0.10383 x(1,0) + 0.03187 x(2,0) + 0.02814 x(3,0) >= 1
cut_clique_4(12,3):  0.36007 x(1,3) + 0.64107 x(2,3) >= 1
cut_clique_4(012,3):  0.01671 x(0,3) + 0.16949 x(1,3) + 0.91214 x(2,3) >= 1
cut_clique_4(123,3):  0.02413 x(1,3) + 0.48099 x(2,3) + 0.08273 x(3,3) >= 1
cut_clique_5(013,0):  0.25893 x(0,0) + 0.50776 x(1,0) + 0.06786 x(3,0) >= 1
cut_clique_5(12,1):  0.01266 x(1,1) + 0.06946 x(2,1) >= 1
cut_clique_5(01,2):  0.02668 x(0,2) + 0.04560 x(1,2) >= 1
cut_clique_5(13,3):  0.02923 x(1,3) + 0.13316 x(3,3) >= 1
cut_clique_5(12,3):  0.26469 x(1,3) + 0.67198 x(2,3) >= 1
cut_clique_5(123,3):  0.23195 x(1,3) + 0.15635 x(2,3) + 0.03548 x(3,3) >= 1
cut_clique_5(012,3):  0.00709 x(0,3) + 0.21422 x(1,3) + 0.49151 x(2,3) >= 1
cut_clique_6(013,0):  0.06567 x(0,0) + 0.03515 x(1,0) + 0.08945 x(3,0) >= 1
cut_clique_6(23,3):  0.04000 x(2,3) + 0.13687 x(3,3) >= 1
cut_clique_6(12,3):  0.19928 x(1,3) + 0.61405 x(2,3) >= 1
cut_clique_6(123,3):  0.23154 x(1,3) + 0.30050 x(2,3) + 0.01700 x(3,3) >= 1
cut_clique_6(012,3):  0.00067 x(0,3) + 0.17469 x(1,3) + 0.61873 x(2,3) >= 1
cut_clique_7(0123,0):  0.00321 x(0,0) + 0.96326 x(1,0) + 0.03408 x(2,0) + 0.03106 x(3,0) >= 1
cut_clique_7(01,2):  0.02893 x(0,2) + 0.04291 x(1,2) >= 1
cut_clique_7(12,3):  0.29702 x(1,3) + 0.22788 x(2,3) >= 1
cut_clique_7(13,3):  0.04307 x(1,3) + 0.12431 x(3,3) >= 1
cut_clique_7(23,3):  0.13755 x(2,3) + 0.11246 x(3,3) >= 1
cut_clique_7(012,3):  0.01941 x(0,3) + 0.22179 x(1,3) + 0.19116 x(2,3) >= 1
cut_clique_7(123,3):  0.08586 x(1,3) + 0.44754 x(2,3) + 0.04164 x(3,3) >= 1
cut_clique_8(013,0):  0.05320 x(0,0) + 0.35259 x(1,0) + 0.09037 x(3,0) >= 1
cut_clique_8(13,2):  0.01908 x(1,2) + 0.03738 x(3,2) >= 1
cut_clique_8(12,3):  0.16304 x(1,3) + 0.32189 x(2,3) >= 1
cut_clique_8(123,3):  0.09578 x(1,3) + 0.16230 x(2,3) + 0.05954 x(3,3) >= 1
cut_clique_8(012,3):  0.00757 x(0,3) + 0.11468 x(1,3) + 0.24697 x(2,3) >= 1
cut_clique_9(013,0):  0.10039 x(0,0) + 0.09250 x(1,0) + 0.08309 x(3,0) >= 1
cut_clique_9(13,2):  0.00495 x(1,2) + 0.04752 x(3,2) >= 1
cut_clique_9(23,3):  0.11976 x(2,3) + 0.11475 x(3,3) >= 1
cut_clique_9(12,3):  0.15493 x(1,3) + 0.18525 x(2,3) >= 1
cut_clique_9(123,3):  0.16366 x(1,3) + 0.10901 x(2,3) + 0.01070 x(3,3) >= 1
cut_clique_10(013,0):  0.04126 x(0,0) + 0.88377 x(1,0) + 0.09245 x(3,0) >= 1
cut_clique_10(12,3):  0.14590 x(1,3) + 0.19852 x(2,3) >= 1
cut_clique_10(23,3):  0.11154 x(2,3) + 0.11528 x(3,3) >= 1
cut_clique_10(012,3):  0.00036 x(0,3) + 0.12396 x(1,3) + 0.19413 x(2,3) >= 1
cut_clique_11(013,0):  0.01463 x(0,0) + 0.40585 x(1,0) + 0.09648 x(3,0) >= 1
cut_clique_11(23,3):  0.04963 x(2,3) + 0.12407 x(3,3) >= 1
cut_clique_11(12,3):  0.17429 x(1,3) + 0.11736 x(2,3) >= 1
cut_clique_11(13,3):  0.02598 x(1,3) + 0.12832 x(3,3) >= 1
cut_clique_11(123,3):  0.05579 x(1,3) + 0.03375 x(2,3) + 0.09842 x(3,3) >= 1
cut_clique_12(013,0):  0.02060 x(0,0) + 0.06176 x(1,0) + 0.09468 x(3,0) >= 1
cut_clique_12(12,3):  0.14053 x(1,3) + 0.16058 x(2,3) >= 1
cut_clique_12(123,3):  0.12708 x(1,3) + 0.12555 x(2,3) + 0.00870 x(3,3) >= 1
cut_clique_12(012,3):  0.01604 x(0,3) + 0.11727 x(1,3) + 0.12553 x(2,3) >= 1
cut_clique_13(013,0):  0.11031 x(0,0) + 0.03985 x(1,0) + 0.08273 x(3,0) >= 1
cut_clique_13(23,3):  0.05038 x(2,3) + 0.12083 x(3,3) >= 1
cut_clique_13(012,3):  0.03907 x(0,3) + 0.06062 x(1,3) + 0.09013 x(2,3) >= 1
cut_clique_14(013,0):  0.04094 x(0,0) + 0.05819 x(1,0) + 0.08920 x(3,0) >= 1
cut_clique_14(12,3):  0.12976 x(1,3) + 0.12358 x(2,3) >= 1
cut_clique_14(23,3):  0.03773 x(2,3) + 0.12616 x(3,3) >= 1
cut_clique_15(13,3):  0.03036 x(1,3) + 0.12146 x(3,3) >= 1
cut_clique_15(123,3):  0.09404 x(1,3) + 0.08384 x(2,3) + 0.04055 x(3,3) >= 1
cut_clique_15(12,3):  0.13789 x(1,3) + 0.10792 x(2,3) >= 1
cut_clique_16(13,2):  0.01005 x(1,2) + 0.04222 x(3,2) >= 1
cut_clique_16(123,3):  0.10422 x(1,3) + 0.11412 x(2,3) + 0.01513 x(3,3) >= 1
cut_clique_16(12,3):  0.11691 x(1,3) + 0.12901 x(2,3) >= 1
cut_clique_17(23,3):  0.04331 x(2,3) + 0.12168 x(3,3) >= 1
cut_clique_17(13,3):  0.00859 x(1,3) + 0.13465 x(3,3) >= 1
cut_clique_17(12,3):  0.11698 x(1,3) + 0.12579 x(2,3) >= 1
Bounds
 0 <= C <= 94
 0 <= x(0,0) <= 70
 0 <= y(0,1,0) <= 1
 0 <= y(1,0,0) <= 1
 0 <= v(0,1,0)p <= 69
 0 <= v(0,1,0)n <= 74
 0 <= v(1,0,0)p <= 63
 0 <= v(1,0,0)n <= 80
 0 <= u(0,1,0)p <= 940
 0 <= u(0,1,0)n <= 940
 0 <= u(1,0,0)p <= 940
 0 <= u(1,0,0)n <= 940
 0 <= y(0,2,0) <= 1
 0 <= y(2,0,0) <= 1
 0 <= v(0,2,0)p <= 50
 0 <= v(0,2,0)n <= 94
 0 <= v(2,0,0)p <= 83
 0 <= v(2,0,0)n <= 61
 0 <= u(0,2,0)p <= 940
 0 <= u(0,2,0)n <= 940
 0 <= u(2,0,0)p <= 940
 0 <= u(2,0,0)n <= 940
 0 <= y(0,3,0) <= 1
 0 <= y(3,0,0) <= 1
 0 <= v(0,3,0)p <= 51
 0 <= v(0,3,0)n <= 84
 0 <= v(3,0,0)p <= 65
 0 <= v(3,0,0)n <= 70
 0 <= u(0,3,0)p <= 940
 0 <= u(0,3,0)n <= 940
 0 <= u(3,0,0)p <= 940
 0 <= u(3,0,0)n <= 940
 0 <= x(1,0) <= 73
 0 <= y(1,2,0) <= 1
 0 <= y(2,1,0) <= 1
 0 <= v(1,2,0)p <= 53
 0 <= v(1,2,0)n <= 94
 0 <= v(2,1,0)p <= 92
 0 <= v(2,1,0)n <= 55
 0 <= u(1,2,0)p <= 940
 0 <= u(1,2,0)n <= 940
 0 <= u(2,1,0)p <= 940
 0 <= u(2,1,0)n <= 940
 0 <= y(1,3,0) <= 1
 0 <= y(3,1,0) <= 1
 0 <= v(1,3,0)p <= 54
 0 <= v(1,3,0)n <= 84
 0 <= v(3,1,0)p <= 74
 0 <= v(3,1,0)n <= 64
 0 <= u(1,3,0)p <= 940
 0 <= u(1,3,0)n <= 940
 0 <= u(3,1,0)p <= 940
 0 <= u(3,1,0)n <= 940
 19 <= x(2,0) <= 93
 0 <= y(2,3,0) <= 1
 0 <= y(3,2,0) <= 1
 0 <= v(2,3,0)p <= 74
 0 <= v(2,3,0)n <= 65
 0 <= v(3,2,0)p <= 55
 0 <= v(3,2,0)n <= 84
 0 <= u(2,3,0)p <= 940
 0 <= u(2,3,0)n <= 940
 0 <= u(3,2,0)p <= 940
 0 <= u(3,2,0)n <= 940
 10 <= x(3,0) <= 75
 17 <= x(0,1) <= 87
 0 <= y(0,1,1) <= 1
 0 <= y(1,0,1) <= 1
 0 <= v(0,1,1)p <= 74
 0 <= v(0,1,1)n <= 69
 0 <= v(1,0,1)p <= 57
 0 <= v(1,0,1)n <= 86
 0 <= u(0,1,1)p <= 940
 0 <= u(0,1,1)n <= 940
 0 <= u(1,0,1)p <= 940
 0 <= u(1,0,1)n <= 940
 0 <= y(0,2,1) <= 1
 0 <= y(2,0,1) <= 1
 0 <= v(0,2,1)p <= 68
 0 <= v(0,2,1)n <= 76
 0 <= v(2,0,1)p <= 62
 0 <= v(2,0,1)n <= 82
 0 <= u(0,2,1)p <= 940
 0 <= u(0,2,1)n <= 940
 0 <= u(2,0,1)p <= 940
 0 <= u(2,0,1)n <= 940
 0 <= y(0,3,1) <= 1
 0 <= y(3,0,1) <= 1
 0 <= v(0,3,1)p <= 80
 0 <= v(0,3,1)n <= 55
 0 <= v(3,0,1)p <= 41
 0 <= v(3,0,1)n <= 94
 0 <= u(0,3,1)p <= 940
 0 <= u(0,3,1)n <= 940
 0 <= u(3,0,1)p <= 940
 0 <= u(3,0,1)n <= 940
 8 <= x(1,1) <= 81
 0 <= y(1,2,1) <= 1
 0 <= y(2,1,1) <= 1
 0 <= v(1,2,1)p <= 62
 0 <= v(1,2,1)n <= 85
 0 <= v(2,1,1)p <= 73
 0 <= v(2,1,1)n <= 74
 0 <= u(1,2,1)p <= 940
 0 <= u(1,2,1)n <= 940
 0 <= u(2,1,1)p <= 940
 0 <= u(2,1,1)n <= 940
 0 <= y(1,3,1) <= 1
 0 <= y(3,1,1) <= 1
 0 <= v(1,3,1)p <= 74
 0 <= v(1,3,1)n <= 64
 0 <= v(3,1,1)p <= 52
 0 <= v(3,1,1)n <= 86
 0 <= u(1,3,1)p <= 940
 0 <= u(1,3,1)n <= 940
 0 <= u(3,1,1)p <= 940
 0 <= u(3,1,1)n <= 940
 12 <= x(2,1) <= 86
 0 <= y(2,3,1) <= 1
 0 <= y(3,2,1) <= 1
 0 <= v(2,3,1)p <= 79
 0 <= v(2,3,1)n <= 60
 0 <= v(3,2,1)p <= 46
 0 <= v(3,2,1)n <= 93
 0 <= u(2,3,1)p <= 940
 0 <= u(2,3,1)n <= 940
 0 <= u(3,2,1)p <= 940
 0 <= u(3,2,1)n <= 940
 0 <= x(3,1) <= 65
 11 <= x(0,2) <= 81
 0 <= y(0,1,2) <= 1
 0 <= y(1,0,2) <= 1
 0 <= v(0,1,2)p <= 60
 0 <= v(0,1,2)n <= 83
 0 <= v(1,0,2)p <= 69
 0 <= v(1,0,2)n <= 74
 0 <= u(0,1,2)p <= 940
 0 <= u(0,1,2)n <= 940
 0 <= u(1,0,2)p <= 940
 0 <= u(1,0,2)n <= 940
 0 <= y(0,2,2) <= 1
 0 <= y(2,0,2) <= 1
 0 <= v(0,2,2)p <= 69
 0 <= v(0,2,2)n <= 75
 0 <= v(2,0,2)p <= 66
 0 <= v(2,0,2)n <= 78
 0 <= u(0,2,2)p <= 940
 0 <= u(0,2,2)n <= 940
 0 <= u(2,0,2)p <= 940
 0 <= u(2,0,2)n <= 940
 0 <= y(0,3,2) <= 1
 0 <= y(3,0,2) <= 1
 0 <= v(0,3,2)p <= 52
 0 <= v(0,3,2)n <= 83
 0 <= v(3,0,2)p <= 67
 0 <= v(3,0,2)n <= 68
 0 <= u(0,3,2)p <= 940
 0 <= u(0,3,2)n <= 940
 0 <= u(3,0,2)p <= 940
 0 <= u(3,0,2)n <= 940
 13 <= x(1,2) <= 86
 0 <= y(1,2,2) <= 1
 0 <= y(2,1,2) <= 1
 0 <= v(1,2,2)p <= 74
 0 <= v(1,2,2)n <= 73
 0 <= v(2,1,2)p <= 62
 0 <= v(2,1,2)n <= 85
 0 <= u(1,2,2)p <= 940
 0 <= u(1,2,2)n <= 940
 0 <= u(2,1,2)p <= 940
 0 <= u(2,1,2)n <= 940
 0 <= y(1,3,2) <= 1
 0 <= y(3,1,2) <= 1
 0 <= v(1,3,2)p <= 57
 0 <= v(1,3,2)n <= 81
 0 <= v(3,1,2)p <= 63
 0 <= v(3,1,2)n <= 75
 0 <= u(1,3,2)p <= 940
 0 <= u(1,3,2)n <= 940
 0 <= u(3,1,2)p <= 940
 0 <= u(3,1,2)n <= 940
 9 <= x(2,2) <= 83
 0 <= y(2,3,2) <= 1
 0 <= y(3,2,2) <= 1
 0 <= v(2,3,2)p <= 54
 0 <= v(2,3,2)n <= 85
 0 <= v(3,2,2)p <= 72
 0 <= v(3,2,2)n <= 67
 0 <= u(2,3,2)p <= 940
 0 <= u(2,3,2)n <= 940
 0 <= u(3,2,2)p <= 940
 0 <= u(3,2,2)n <= 940
 19 <= x(3,2) <= 84
 10 <= x(0,3) <= 80
 0 <= y(0,1,3) <= 1
 0 <= y(1,0,3) <= 1
 0 <= v(0,1,3)p <= 72
 0 <= v(0,1,3)n <= 71
 0 <= v(1,0,3)p <= 63
 0 <= v(1,0,3)n <= 80
 0 <= u(0,1,3)p <= 940
 0 <= u(0,1,3)n <= 940
 0 <= u(1,0,3)p <= 940
 0 <= u(1,0,3)n <= 940
 0 <= y(0,2,3) <= 1
 0 <= y(2,0,3) <= 1
 0 <= v(0,2,3)p <= 71
 0 <= v(0,2,3)n <= 73
 0 <= v(2,0,3)p <= 63
 0 <= v(2,0,3)n <= 81
 0 <= u(0,2,3)p <= 940
 0 <= u(0,2,3)n <= 940
 0 <= u(2,0,3)p <= 940
 0 <= u(2,0,3)n <= 940
 0 <= y(0,3,3) <= 1
 0 <= y(3,0,3) <= 1
 0 <= v(0,3,3)p <= 70
 0 <= v(0,3,3)n <= 65
 0 <= v(3,0,3)p <= 61
 0 <= v(3,0,3)n <= 74
 0 <= u(0,3,3)p <= 940
 0 <= u(0,3,3)n <= 940
 0 <= u(3,0,3)p <= 940
 0 <= u(3,0,3)n <= 940
 1 <= x(1,3) <= 74
 0 <= y(1,2,3) <= 1
 0 <= y(2,1,3) <= 1
 0 <= v(1,2,3)p <= 65
 0 <= v(1,2,3)n <= 82
 0 <= v(2,1,3)p <= 66
 0 <= v(2,1,3)n <= 81
 0 <= u(1,2,3)p <= 940
 0 <= u(1,2,3)n <= 940
 0 <= u(2,1,3)p <= 940
 0 <= u(2,1,3)n <= 940
 0 <= y(1,3,3) <= 1
 0 <= y(3,1,3) <= 1
 0 <= v(1,3,3)p <= 64
 0 <= v(1,3,3)n <= 74
 0 <= v(3,1,3)p <= 64
 0 <= v(3,1,3)n <= 74
 0 <= u(1,3,3)p <= 940
 0 <= u(1,3,3)n <= 940
 0 <= u(3,1,3)p <= 940
 0 <= u(3,1,3)n <= 940
 0 <= x(2,3) <= 74
 0 <= y(2,3,3) <= 1
 0 <= y(3,2,3) <= 1
 0 <= v(2,3,3)p <= 64
 0 <= v(2,3,3)n <= 75
 0 <= v(3,2,3)p <= 63
 0 <= v(3,2,3)n <= 76
 0 <= u(2,3,3)p <= 940
 0 <= u(2,3,3)n <= 940
 0 <= u(3,2,3)p <= 940
 0 <= u(3,2,3)n <= 940
 7 <= x(3,3) <= 72
End
